QPLIB_3337
LCQ
minimize
297 # number of variables
198 # number of constraints
0.0 # default value for linear coefficients in objective
1 # number of non-default linear coefficients in objective
101 1.0
0.0 # objective constant
198 # number of quadratic terms in all constraints
1 200 101 -2.0
2 32587 32587 -2.0
3 -964719703 -964719751 -2.0
4 32587 32587 -2.0
5 33 1 -2.0
6 1 1 -2.0
7 50 34 -2.0
8 1 1 -2.0
9 1651076121 101 -2.0
10 1668574818 32587 -2.0
11 1651076196 -964719751 -2.0
12 1932407863 32587 -2.0
13 1851859056 33 -2.0
14 540090485 1 -2.0
15 50 49 -2.0
16 1 1 -2.0
17 1651076121 1 -2.0
18 1668574818 1 -2.0
19 1651076196 50 -2.0
20 1932407863 1 -2.0
21 1851859056 1651076121 -2.0
22 1668834403 540090485 -2.0
23 1651076196 49 -2.0
24 1932407863 1 -2.0
25 1684152432 1 -2.0
26 540156025 1 -2.0
27 541412913 50 -2.0
28 540094770 1 -2.0
29 1651076121 540090417 -2.0
30 1668834403 540024881 -2.0
31 1651076196 50 -2.0
32 1932407863 1 -2.0
33 1684152432 1651076122 -2.0
34 1852403556 540156025 -2.0
35 1768711012 541412913 -2.0
36 775173731 540094770 -2.0
37 1646292852 540090417 -2.0
38 824209008 540024881 -2.0
39 1915629601 50 -2.0
40 1728736886 1 -2.0
41 1651076122 49 -2.0
42 1852403556 1 -2.0
43 1768711012 306 -2.0
44 775173731 1 -2.0
45 1646292852 -964719463 -2.0
46 824209008 32587 -2.0
47 1915629601 -964719463 -2.0
48 1728736886 32587 -2.0
49 49 1 -2.0
50 1 1 -2.0
51 306 1 -2.0
52 1 1 -2.0
53 16539281 -964719463 -2.0
54 32587 1 -2.0
55 258 -964719463 -2.0
56 32587 1 -2.0
57 16516977 1 -2.0
58 1 1 -2.0
59 17160241 1 -2.0
60 1 1 -2.0
61 16539281 33 -2.0
62 1 1 -2.0
63 258 145 -2.0
64 1 1 -2.0
65 17161969 16516977 -2.0
66 1 1 -2.0
67 17160241 -964719751 -2.0
68 32587 1 -2.0
69 16546609 33 -2.0
70 1 1 -2.0
71 16547425 145 -2.0
72 1 1 -2.0
73 17161969 16548241 -2.0
74 1 1 -2.0
75 16549057 -964719751 -2.0
76 32587 1 -2.0
77 16546609 1 -2.0
78 1 1 -2.0
79 16547425 162 -2.0
80 1 1 -2.0
81 16548241 -964719607 -2.0
82 32587 1 -2.0
83 16549057 -964719607 -2.0
84 32587 1 -2.0
85 33 1 -2.0
86 1 1 -2.0
87 162 49 -2.0
88 1 1 -2.0
89 1 -964719607 -2.0
90 32587 1 -2.0
91 1 -964719607 -2.0
92 32587 1 -2.0
93 33 1 -2.0
94 1 1 -2.0
95 49 1 -2.0
96 1 1 -2.0
97 1 1 -2.0
98 1 1 -2.0
99 82 1 -2.0
100 1 1 -2.0
101 16516977 1 -2.0
102 1 1 -2.0
103 1 -964719751 -2.0
104 32587 1 -2.0
105 1 1 -2.0
106 1 1 -2.0
107 82 1 -2.0
108 1 1 -2.0
109 16516977 16515873 -2.0
110 1 1 -2.0
111 34 -964719751 -2.0
112 32587 1 -2.0
113 1 -964719751 -2.0
114 32587 1 -2.0
115 17161953 1 -2.0
116 1 1 -2.0
117 16515873 305 -2.0
118 1 1 -2.0
119 113 34 -2.0
120 1 1 -2.0
121 -964719751 -988630431 -2.0
122 32587 32587 -2.0
123 17161953 1 -2.0
124 1 1 -2.0
125 305 1 -2.0
126 1 1 -2.0
127 113 1 -2.0
128 1 1 -2.0
129 16511553 -988630431 -2.0
130 32587 1 -2.0
131 16515105 1 -2.0
132 1 1 -2.0
133 1 1 -2.0
134 1 1 -2.0
135 1 1 -2.0
136 1 1 -2.0
137 16511553 1 -2.0
138 1 1 -2.0
139 16515105 1 -2.0
140 10 1 -2.0
141 1 1 -2.0
142 1 1 -2.0
143 1 1 -2.0
144 1027 1 -2.0
145 16515585 1 -2.0
146 1 1 -2.0
147 34 1 -2.0
148 10 1 -2.0
149 1818576901 1 -2.0
150 32625 1 -2.0
151 1 -964719751 -2.0
152 32587 1027 -2.0
153 16515585 33 -2.0
154 1 1 -2.0
155 50 34 -2.0
156 1 1 -2.0
157 1818576901 1651076122 -2.0
158 1852403556 32625 -2.0
159 1768711012 -964719751 -2.0
160 775173731 32587 -2.0
161 1646292852 33 -2.0
162 824209008 1 -2.0
163 12321 50 -2.0
164 1 1 -2.0
165 1651076122 1 -2.0
166 1852403556 1 -2.0
167 1768711012 50 -2.0
168 775173731 1 -2.0
169 1651076122 1646292852 -2.0
170 1852403556 824209008 -2.0
171 1768711012 12321 -2.0
172 775173731 1 -2.0
173 1663070068 1 -2.0
174 824206179 1 -2.0
175 12321 50 -2.0
176 1 1 -2.0
177 1651076122 1 -2.0
178 1852403556 1 -2.0
179 1768711012 50 -2.0
180 775173731 1 -2.0
181 1663070068 1651076122 -2.0
182 1852403556 824206179 -2.0
183 1768711012 12321 -2.0
184 775173731 1 -2.0
185 1646292852 1 -2.0
186 824209008 1 -2.0
187 12321 50 -2.0
188 1 1 -2.0
189 1651076122 16515073 -2.0
190 1852403556 1 -2.0
191 1768711012 50 -2.0
192 775173731 1 -2.0
193 1651076122 1646292852 -2.0
194 1852403556 824209008 -2.0
195 1768711012 12321 -2.0
196 775173731 1 -2.0
197 1663070068 16515073 -2.0
198 824206179 1 -2.0
391 # number of linear terms in all constraints
1 102 100.0
2 102 -100.0
2 103 100.0
3 103 -100.0
3 104 100.0
4 104 -100.0
4 105 100.0
5 105 -100.0
5 106 100.0
6 106 -100.0
6 107 100.0
7 107 -100.0
7 108 100.0
8 108 -100.0
8 109 100.0
9 109 -100.0
9 110 100.0
10 110 -100.0
10 111 100.0
11 111 -100.0
11 112 100.0
12 112 -100.0
12 113 100.0
13 113 -100.0
13 114 100.0
14 114 -100.0
14 115 100.0
15 115 -100.0
15 116 100.0
16 116 -100.0
16 117 100.0
17 117 -100.0
17 118 100.0
18 118 -100.0
18 119 100.0
19 119 -100.0
19 120 100.0
20 120 -100.0
20 121 100.0
21 121 -100.0
21 122 100.0
22 122 -100.0
22 123 100.0
23 123 -100.0
23 124 100.0
24 124 -100.0
24 125 100.0
25 125 -100.0
25 126 100.0
26 126 -100.0
26 127 100.0
27 127 -100.0
27 128 100.0
28 128 -100.0
28 129 100.0
29 129 -100.0
29 130 100.0
30 130 -100.0
30 131 100.0
31 131 -100.0
31 132 100.0
32 132 -100.0
32 133 100.0
33 133 -100.0
33 134 100.0
34 134 -100.0
34 135 100.0
35 135 -100.0
35 136 100.0
36 136 -100.0
36 137 100.0
37 137 -100.0
37 138 100.0
38 138 -100.0
38 139 100.0
39 139 -100.0
39 140 100.0
40 140 -100.0
40 141 100.0
41 141 -100.0
41 142 100.0
42 142 -100.0
42 143 100.0
43 143 -100.0
43 144 100.0
44 144 -100.0
44 145 100.0
45 145 -100.0
45 146 100.0
46 146 -100.0
46 147 100.0
47 147 -100.0
47 148 100.0
48 148 -100.0
48 149 100.0
49 149 -100.0
49 150 100.0
50 150 -100.0
50 151 100.0
51 151 -100.0
51 152 100.0
52 152 -100.0
52 153 100.0
53 153 -100.0
53 154 100.0
54 154 -100.0
54 155 100.0
55 155 -100.0
55 156 100.0
56 156 -100.0
56 157 100.0
57 157 -100.0
57 158 100.0
58 158 -100.0
58 159 100.0
59 159 -100.0
59 160 100.0
60 160 -100.0
60 161 100.0
61 161 -100.0
61 162 100.0
62 162 -100.0
62 163 100.0
63 163 -100.0
63 164 100.0
64 164 -100.0
64 165 100.0
65 165 -100.0
65 166 100.0
66 166 -100.0
66 167 100.0
67 167 -100.0
67 168 100.0
68 168 -100.0
68 169 100.0
69 169 -100.0
69 170 100.0
70 170 -100.0
70 171 100.0
71 171 -100.0
71 172 100.0
72 172 -100.0
72 173 100.0
73 173 -100.0
73 174 100.0
74 174 -100.0
74 175 100.0
75 175 -100.0
75 176 100.0
76 176 -100.0
76 177 100.0
77 177 -100.0
77 178 100.0
78 178 -100.0
78 179 100.0
79 179 -100.0
79 180 100.0
80 180 -100.0
80 181 100.0
81 181 -100.0
81 182 100.0
82 182 -100.0
82 183 100.0
83 183 -100.0
83 184 100.0
84 184 -100.0
84 185 100.0
85 185 -100.0
85 186 100.0
86 186 -100.0
86 187 100.0
87 187 -100.0
87 188 100.0
88 188 -100.0
88 189 100.0
89 189 -100.0
89 190 100.0
90 190 -100.0
90 191 100.0
91 191 -100.0
91 192 100.0
92 192 -100.0
92 193 100.0
93 193 -100.0
93 194 100.0
94 194 -100.0
94 195 100.0
95 195 -100.0
95 196 100.0
96 196 -100.0
96 197 100.0
97 197 -100.0
97 198 100.0
98 198 -100.0
99 199 -100.0
100 200 100.0
101 200 -100.0
101 201 100.0
102 201 -100.0
102 202 100.0
103 202 -100.0
103 203 100.0
104 203 -100.0
104 204 100.0
105 204 -100.0
105 205 100.0
106 205 -100.0
106 206 100.0
107 206 -100.0
107 207 100.0
108 207 -100.0
108 208 100.0
109 208 -100.0
109 209 100.0
110 209 -100.0
110 210 100.0
111 210 -100.0
111 211 100.0
112 211 -100.0
112 212 100.0
113 212 -100.0
113 213 100.0
114 213 -100.0
114 214 100.0
115 214 -100.0
115 215 100.0
116 215 -100.0
116 216 100.0
117 216 -100.0
117 217 100.0
118 217 -100.0
118 218 100.0
119 218 -100.0
119 219 100.0
120 219 -100.0
120 220 100.0
121 220 -100.0
121 221 100.0
122 221 -100.0
122 222 100.0
123 222 -100.0
123 223 100.0
124 223 -100.0
124 224 100.0
125 224 -100.0
125 225 100.0
126 225 -100.0
126 226 100.0
127 226 -100.0
127 227 100.0
128 227 -100.0
128 228 100.0
129 228 -100.0
129 229 100.0
130 229 -100.0
130 230 100.0
131 230 -100.0
131 231 100.0
132 231 -100.0
132 232 100.0
133 232 -100.0
133 233 100.0
134 233 -100.0
134 234 100.0
135 234 -100.0
135 235 100.0
136 235 -100.0
136 236 100.0
137 236 -100.0
137 237 100.0
138 237 -100.0
138 238 100.0
139 238 -100.0
139 239 100.0
140 239 -100.0
140 240 100.0
141 240 -100.0
141 241 100.0
142 241 -100.0
142 242 100.0
143 242 -100.0
143 243 100.0
144 243 -100.0
144 244 100.0
145 244 -100.0
145 245 100.0
146 245 -100.0
146 246 100.0
147 246 -100.0
147 247 100.0
148 247 -100.0
148 248 100.0
149 248 -100.0
149 249 100.0
150 249 -100.0
150 250 100.0
151 250 -100.0
151 251 100.0
152 251 -100.0
152 252 100.0
153 252 -100.0
153 253 100.0
154 253 -100.0
154 254 100.0
155 254 -100.0
155 255 100.0
156 255 -100.0
156 256 100.0
157 256 -100.0
157 257 100.0
158 257 -100.0
158 258 100.0
159 258 -100.0
159 259 100.0
160 259 -100.0
160 260 100.0
161 260 -100.0
161 261 100.0
162 261 -100.0
162 262 100.0
163 262 -100.0
163 263 100.0
164 263 -100.0
164 264 100.0
165 264 -100.0
165 265 100.0
166 265 -100.0
166 266 100.0
167 266 -100.0
167 267 100.0
168 267 -100.0
168 268 100.0
169 268 -100.0
169 269 100.0
170 269 -100.0
170 270 100.0
171 270 -100.0
171 271 100.0
172 271 -100.0
172 272 100.0
173 272 -100.0
173 273 100.0
174 273 -100.0
174 274 100.0
175 274 -100.0
175 275 100.0
176 275 -100.0
176 276 100.0
177 276 -100.0
177 277 100.0
178 277 -100.0
178 278 100.0
179 278 -100.0
179 279 100.0
180 279 -100.0
180 280 100.0
181 280 -100.0
181 281 100.0
182 281 -100.0
182 282 100.0
183 282 -100.0
183 283 100.0
184 283 -100.0
184 284 100.0
185 284 -100.0
185 285 100.0
186 285 -100.0
186 286 100.0
187 286 -100.0
187 287 100.0
188 287 -100.0
188 288 100.0
189 288 -100.0
189 289 100.0
190 289 -100.0
190 290 100.0
191 290 -100.0
191 291 100.0
192 291 -100.0
192 292 100.0
193 292 -100.0
193 293 100.0
194 293 -100.0
194 294 100.0
195 294 -100.0
195 295 100.0
196 295 -100.0
196 296 100.0
197 296 -100.0
197 297 100.0
198 297 -100.0
1.79769313486232E+308 # value for infinity
0.0 # default left-hand-side value
1 # number of non-default left-hand-sides
98 -10000.0
0.0 # default right-hand-side value
1 # number of non-default right-hand-sides
98 -10000.0
-1.0 # default variable lower bound value
197 # number of non-default variable lower bounds
101 -1.79769313486232E+308
102 -1.79769313486232E+308
103 -1.79769313486232E+308
104 -1.79769313486232E+308
105 -1.79769313486232E+308
106 -1.79769313486232E+308
107 -1.79769313486232E+308
108 -1.79769313486232E+308
109 -1.79769313486232E+308
110 -1.79769313486232E+308
111 -1.79769313486232E+308
112 -1.79769313486232E+308
113 -1.79769313486232E+308
114 -1.79769313486232E+308
115 -1.79769313486232E+308
116 -1.79769313486232E+308
117 -1.79769313486232E+308
118 -1.79769313486232E+308
119 -1.79769313486232E+308
120 -1.79769313486232E+308
121 -1.79769313486232E+308
122 -1.79769313486232E+308
123 -1.79769313486232E+308
124 -1.79769313486232E+308
125 -1.79769313486232E+308
126 -1.79769313486232E+308
127 -1.79769313486232E+308
128 -1.79769313486232E+308
129 -1.79769313486232E+308
130 -1.79769313486232E+308
131 -1.79769313486232E+308
132 -1.79769313486232E+308
133 -1.79769313486232E+308
134 -1.79769313486232E+308
135 -1.79769313486232E+308
136 -1.79769313486232E+308
137 -1.79769313486232E+308
138 -1.79769313486232E+308
139 -1.79769313486232E+308
140 -1.79769313486232E+308
141 -1.79769313486232E+308
142 -1.79769313486232E+308
143 -1.79769313486232E+308
144 -1.79769313486232E+308
145 -1.79769313486232E+308
146 -1.79769313486232E+308
147 -1.79769313486232E+308
148 -1.79769313486232E+308
149 -1.79769313486232E+308
150 -1.79769313486232E+308
151 -1.79769313486232E+308
152 -1.79769313486232E+308
153 -1.79769313486232E+308
154 -1.79769313486232E+308
155 -1.79769313486232E+308
156 -1.79769313486232E+308
157 -1.79769313486232E+308
158 -1.79769313486232E+308
159 -1.79769313486232E+308
160 -1.79769313486232E+308
161 -1.79769313486232E+308
162 -1.79769313486232E+308
163 -1.79769313486232E+308
164 -1.79769313486232E+308
165 -1.79769313486232E+308
166 -1.79769313486232E+308
167 -1.79769313486232E+308
168 -1.79769313486232E+308
169 -1.79769313486232E+308
170 -1.79769313486232E+308
171 -1.79769313486232E+308
172 -1.79769313486232E+308
173 -1.79769313486232E+308
174 -1.79769313486232E+308
175 -1.79769313486232E+308
176 -1.79769313486232E+308
177 -1.79769313486232E+308
178 -1.79769313486232E+308
179 -1.79769313486232E+308
180 -1.79769313486232E+308
181 -1.79769313486232E+308
182 -1.79769313486232E+308
183 -1.79769313486232E+308
184 -1.79769313486232E+308
185 -1.79769313486232E+308
186 -1.79769313486232E+308
187 -1.79769313486232E+308
188 -1.79769313486232E+308
189 -1.79769313486232E+308
190 -1.79769313486232E+308
191 -1.79769313486232E+308
192 -1.79769313486232E+308
193 -1.79769313486232E+308
194 -1.79769313486232E+308
195 -1.79769313486232E+308
196 -1.79769313486232E+308
197 -1.79769313486232E+308
198 -1.79769313486232E+308
199 -5.0
200 -5.0
201 -5.0
202 -5.0
203 -5.0
204 -5.0
205 -5.0
206 -5.0
207 -5.0
208 -5.0
209 -5.0
210 -5.0
211 -5.0
212 -5.0
213 -5.0
214 -5.0
215 -5.0
216 -5.0
217 -5.0
218 -5.0
219 -5.0
220 -5.0
221 -5.0
222 -5.0
223 -5.0
224 -5.0
225 -5.0
226 -5.0
227 -5.0
228 -5.0
229 -5.0
230 -5.0
231 -5.0
232 -5.0
233 -5.0
234 -5.0
235 -5.0
236 -5.0
237 -5.0
238 -5.0
239 -5.0
240 -5.0
241 -5.0
242 -5.0
243 -5.0
244 -5.0
245 -5.0
246 -5.0
247 -5.0
248 -5.0
249 -5.0
250 -5.0
251 -5.0
252 -5.0
253 -5.0
254 -5.0
255 -5.0
256 -5.0
257 -5.0
258 -5.0
259 -5.0
260 -5.0
261 -5.0
262 -5.0
263 -5.0
264 -5.0
265 -5.0
266 -5.0
267 -5.0
268 -5.0
269 -5.0
270 -5.0
271 -5.0
272 -5.0
273 -5.0
274 -5.0
275 -5.0
276 -5.0
277 -5.0
278 -5.0
279 -5.0
280 -5.0
281 -5.0
282 -5.0
283 -5.0
284 -5.0
285 -5.0
286 -5.0
287 -5.0
288 -5.0
289 -5.0
290 -5.0
291 -5.0
292 -5.0
293 -5.0
294 -5.0
295 -5.0
296 -5.0
297 -5.0
1.0 # default variable upper bound value
197 # number of non-default variable upper bounds
101 1.79769313486232E+308
102 1.79769313486232E+308
103 1.79769313486232E+308
104 1.79769313486232E+308
105 1.79769313486232E+308
106 1.79769313486232E+308
107 1.79769313486232E+308
108 1.79769313486232E+308
109 1.79769313486232E+308
110 1.79769313486232E+308
111 1.79769313486232E+308
112 1.79769313486232E+308
113 1.79769313486232E+308
114 1.79769313486232E+308
115 1.79769313486232E+308
116 1.79769313486232E+308
117 1.79769313486232E+308
118 1.79769313486232E+308
119 1.79769313486232E+308
120 1.79769313486232E+308
121 1.79769313486232E+308
122 1.79769313486232E+308
123 1.79769313486232E+308
124 1.79769313486232E+308
125 1.79769313486232E+308
126 1.79769313486232E+308
127 1.79769313486232E+308
128 1.79769313486232E+308
129 1.79769313486232E+308
130 1.79769313486232E+308
131 1.79769313486232E+308
132 1.79769313486232E+308
133 1.79769313486232E+308
134 1.79769313486232E+308
135 1.79769313486232E+308
136 1.79769313486232E+308
137 1.79769313486232E+308
138 1.79769313486232E+308
139 1.79769313486232E+308
140 1.79769313486232E+308
141 1.79769313486232E+308
142 1.79769313486232E+308
143 1.79769313486232E+308
144 1.79769313486232E+308
145 1.79769313486232E+308
146 1.79769313486232E+308
147 1.79769313486232E+308
148 1.79769313486232E+308
149 1.79769313486232E+308
150 1.79769313486232E+308
151 1.79769313486232E+308
152 1.79769313486232E+308
153 1.79769313486232E+308
154 1.79769313486232E+308
155 1.79769313486232E+308
156 1.79769313486232E+308
157 1.79769313486232E+308
158 1.79769313486232E+308
159 1.79769313486232E+308
160 1.79769313486232E+308
161 1.79769313486232E+308
162 1.79769313486232E+308
163 1.79769313486232E+308
164 1.79769313486232E+308
165 1.79769313486232E+308
166 1.79769313486232E+308
167 1.79769313486232E+308
168 1.79769313486232E+308
169 1.79769313486232E+308
170 1.79769313486232E+308
171 1.79769313486232E+308
172 1.79769313486232E+308
173 1.79769313486232E+308
174 1.79769313486232E+308
175 1.79769313486232E+308
176 1.79769313486232E+308
177 1.79769313486232E+308
178 1.79769313486232E+308
179 1.79769313486232E+308
180 1.79769313486232E+308
181 1.79769313486232E+308
182 1.79769313486232E+308
183 1.79769313486232E+308
184 1.79769313486232E+308
185 1.79769313486232E+308
186 1.79769313486232E+308
187 1.79769313486232E+308
188 1.79769313486232E+308
189 1.79769313486232E+308
190 1.79769313486232E+308
191 1.79769313486232E+308
192 1.79769313486232E+308
193 1.79769313486232E+308
194 1.79769313486232E+308
195 1.79769313486232E+308
196 1.79769313486232E+308
197 1.79769313486232E+308
198 1.79769313486232E+308
199 5.0
200 5.0
201 5.0
202 5.0
203 5.0
204 5.0
205 5.0
206 5.0
207 5.0
208 5.0
209 5.0
210 5.0
211 5.0
212 5.0
213 5.0
214 5.0
215 5.0
216 5.0
217 5.0
218 5.0
219 5.0
220 5.0
221 5.0
222 5.0
223 5.0
224 5.0
225 5.0
226 5.0
227 5.0
228 5.0
229 5.0
230 5.0
231 5.0
232 5.0
233 5.0
234 5.0
235 5.0
236 5.0
237 5.0
238 5.0
239 5.0
240 5.0
241 5.0
242 5.0
243 5.0
244 5.0
245 5.0
246 5.0
247 5.0
248 5.0
249 5.0
250 5.0
251 5.0
252 5.0
253 5.0
254 5.0
255 5.0
256 5.0
257 5.0
258 5.0
259 5.0
260 5.0
261 5.0
262 5.0
263 5.0
264 5.0
265 5.0
266 5.0
267 5.0
268 5.0
269 5.0
270 5.0
271 5.0
272 5.0
273 5.0
274 5.0
275 5.0
276 5.0
277 5.0
278 5.0
279 5.0
280 5.0
281 5.0
282 5.0
283 5.0
284 5.0
285 5.0
286 5.0
287 5.0
288 5.0
289 5.0
290 5.0
291 5.0
292 5.0
293 5.0
294 5.0
295 5.0
296 5.0
297 5.0
0.0 # default variable primal value in starting point
0 # number of non-default variable primal values in starting point
0.0 # default constraint dual value in starting point
0 # number of non-default constraint dual values in starting point
0.0 # default variable bound dual value in starting point
0 # number of non-default variable bound dual values in starting point
0 # number of non-default variable names
0 # number of non-default constraint names
